n_res = 4;
rc = [ 20, 20, 21, 25 ];
n_tasks = 30;
d = [ 6, 3, 5, 5, 3, 6, 10, 2, 10, 6, 9, 2, 5, 1, 9, 10, 10, 6, 10, 5, 3, 10, 3, 3, 4, 1, 5, 5, 10, 3 ];
rr = [| 6, 5, 10, 1, 4, 0, 8, 0, 0, 5, 0, 5, 6, 0, 3, 4, 0, 0, 5, 6, 0, 10, 5, 4, 2, 0, 0, 2, 7, 1
      | 7, 6, 3, 2, 5, 0, 8, 5, 10, 3, 10, 4, 5, 9, 8, 5, 0, 8, 5, 1, 7, 6, 0, 6, 9, 4, 3, 5, 0, 0
      | 2, 0, 3, 0, 5, 10, 0, 0, 6, 0, 6, 0, 5, 1, 0, 9, 0, 9, 5, 8, 9, 4, 10, 1, 3, 9, 3, 0, 0, 7
      | 0, 3, 9, 9, 5, 3, 10, 3, 6, 10, 1, 4, 3, 5, 0, 10, 6, 7, 7, 0, 4, 9, 7, 3, 8, 4, 10, 0, 6, 10 |];
suc = [ { 2 }, 
        { 1 }, 
        { 4 }, 
        { 3 }, 
        { 6 }, 
        { 5 }, 
        { 8 }, 
        { 7 }, 
        { 10 }, 
        { 9 }, 
        { 12 }, 
        { 11 }, 
        { 14 }, 
        { 13 }, 
        { 16 }, 
        { 15 }, 
        { 18 }, 
        { 17 }, 
        { 20 }, 
        { 19 }, 
        { 22 }, 
        { 21 }, 
        { 24 }, 
        { 23 }, 
        { 26 }, 
        { 25 }, 
        { 28 }, 
        { 27 }, 
        { 30 }, 
        { 29 }]; 
